11,1	0,0	6,9	9,3	0,0	0,0	0,0	0,0	0,0	17,0
16,9	6,4	0,0	14,4	6,2	0,0	0,0	7,5	0,0	0,0
0,0	0,0	16,4	0,0	5,7	19,7	0,0	0,0	13,8	0,0
14,3	0,0	5,3	0,0	0,0	0,0	5,2	0,0	0,0	0,0
0,0	5,3	0,0	7,3	13,1	0,0	0,0	10,4	0,0	0,0
0,0	7,6	13,3	0,0	14,6	5,4	0,0	0,0	14,7	0,0
0,0	10,6	0,0	6,0	0,0	0,0	13,8	0,0	0,0	18,7
19,8	0,0	11,6	0,0	0,0	0,0	0,0	0,0	0,0	13,1
0,0	6,7	0,0	11,6	18,4	0,0	0,0	11,7	0,0	0,0
0,0	0,0	9,4	0,0	0,0	13,5	8,0	0,0	0,0	11,8
									
3,3	3,0	3,1	4,2	4,3	2,9	4,9	3,9	4,8	3,3
